HUN,8,6,637
1,7,5,17,4,20,2,28,0,8,3,1
3,26,5,14,0,27,4,12,1,7,2,23
1,10,0,12,4,12,5,12,2,22,3,6
5,10,4,12,3,30,2,10,1,4,0,5
5,4,4,27,1,3,0,9,3,27,2,1
2,8,0,6,5,22,1,21,4,4,3,26
1,25,4,10,0,12,2,3,3,27,5,10
2,20,3,13,4,17,5,19,0,2,1,16
